certificates/rado_a6_c130_N22.cnf
c Rad2 upper bound instance: x1 + 6*x2 - x3 = 130, interval [1,22]
p cnf 22 112
1 3 22 0
-1 -3 -22 0
2 4 22 0
-2 -4 -22 0
3 5 22 0
-3 -5 -22 0
4 6 22 0
-4 -6 -22 0
1 5 21 0
-1 -5 -21 0
5 7 22 0
-5 -7 -22 0
2 6 21 0
-2 -6 -21 0
6 8 22 0
-6 -8 -22 0
3 7 21 0
-3 -7 -21 0
7 9 22 0
-7 -9 -22 0
4 8 21 0
-4 -8 -21 0
8 10 22 0
-8 -10 -22 0
5 9 21 0
-5 -9 -21 0
9 11 22 0
-9 -11 -22 0
6 10 21 0
-6 -10 -21 0
10 12 22 0
-10 -12 -22 0
1 11 20 0
-1 -11 -20 0
7 11 21 0
-7 -11 -21 0
11 13 22 0
-11 -13 -22 0
2 12 20 0
-2 -12 -20 0
8 12 21 0
-8 -12 -21 0
12 14 22 0
-12 -14 -22 0
3 13 20 0
-3 -13 -20 0
9 13 21 0
-9 -13 -21 0
13 15 22 0
-13 -15 -22 0
4 14 20 0
-4 -14 -20 0
10 14 21 0
-10 -14 -21 0
14 16 22 0
-14 -16 -22 0
5 15 20 0
-5 -15 -20 0
11 15 21 0
-11 -15 -21 0
15 17 22 0
-15 -17 -22 0
6 16 20 0
-6 -16 -20 0
12 16 21 0
-12 -16 -21 0
16 18 22 0
-16 -18 -22 0
1 17 19 0
-1 -17 -19 0
7 17 20 0
-7 -17 -20 0
13 17 21 0
-13 -17 -21 0
17 19 22 0
-17 -19 -22 0
2 18 19 0
-2 -18 -19 0
8 18 20 0
-8 -18 -20 0
14 18 21 0
-14 -18 -21 0
18 20 22 0
-18 -20 -22 0
3 19 0
-3 -19 0
9 19 20 0
-9 -19 -20 0
15 19 21 0
-15 -19 -21 0
19 21 22 0
-19 -21 -22 0
4 19 20 0
-4 -19 -20 0
10 20 0
-10 -20 0
16 20 21 0
-16 -20 -21 0
20 22 0
-20 -22 0
5 19 21 0
-5 -19 -21 0
11 20 21 0
-11 -20 -21 0
17 21 0
-17 -21 0
6 19 22 0
-6 -19 -22 0
12 20 22 0
-12 -20 -22 0
18 21 22 0
-18 -21 -22 0
