certificates/rado_a6_c130_N22.drat
-22 0
20 0
-10 0
8 0
12 0
-18 0
-2 0
-21 0
16 0
14 0
0
